p tdp 24 36
1 7
1 21
1 23
2 3
2 11
2 17
3 12
3 14
4 8
4 9
4 10
5 6
5 15
5 20
6 16
6 17
7 14
7 19
8 17
8 21
9 12
9 20
10 18
10 19
11 18
11 23
12 13
13 16
13 24
14 15
15 22
16 19
18 22
20 23
21 24
22 24
